400
750
600
598
598
596
596
595
593
592
591
591
591
590
589
588
586
585
585
585
585
584
584
582
582
581
581
581
580
579
579
578
577
577
576
576
576
576
573
572
570
570
568
566
564
564
562
561
561
560
558
557
557
556
551
551
550
549
547
545
544
544
540
539
539
537
537
536
536
533
533
532
531
531
528
527
527
526
526
522
522
520
519
518
516
515
511
509
507
506
506
504
504
503
502
500
500
499
497
496
496
495
495
493
491
489
489
486
483
481
476
475
475
473
470
468
467
466
465
465
464
463
463
459
457
456
456
455
448
448
445
444
443
443
442
441
435
433
432
432
430
430
430
430
430
427
427
427
427
427
423
421
421
421
420
417
415
415
413
412
409
408
406
406
403
398
398
393
393
391
391
391
390
388
387
387
385
385
380
376
375
375
372
368
368
368
368
366
357
355
354
354
352
352
351
347
346
346
344
343
343
343
339
338
338
335
330
329
328
328
324
324
321
321
320
316
316
314
314
314
313
312
312
311
309
309
307
306
305
303
303
301
297
296
296
295
293
291
290
288
284
283
283
282
279
279
277
275
275
273
273
271
269
269
268
268
267
266
265
263
261
259
257
256
252
252
251
250
249
246
246
245
242
240
239
239
238
237
232
231
228
227
227
226
226
224
223
223
223
222
221
221
221
219
218
218
217
217
216
215
215
215
213
212
201
200
199
198
198
198
198
198
197
197
193
192
192
191
191
190
189
187
186
186
185
185
183
182
182
180
180
179
179
175
169
169
167
166
166
166
164
164
164
162
159
155
154
154
154
154
151
151
151
148
148
137
135
134
132
131
131
131
130
129
128
128
127
126
122
121
120
119
119
116
114
114
113
113
110
109
109
106
106
105
102
101
99
98
96
95
95
93
89
88
86
84
84
84
80
80
80
78
